# Solution for model count
# Objective value = 9
z#1 1
z#2 0
z#3 0
z#4 1
z#5 0
z#6 0
z#7 0
z#8 0
z#9 0
z#10 1
z#11 0
z#12 1
z#13 0
z#14 1
z#15 1
z#16 0
z#17 1
z#18 0
z#19 0
z#20 1
z#21 1
z#22 0
z#23 0
z#24 0
x#24 0
x#23 0
x#22 0
x#21 1629
x#20 906
x#19 0
x#18 0
x#17 2453
x#16 0
x#15 2116
x#14 250
x#13 0
x#12 18
x#11 0
x#10 1199
x#9 0
x#8 0
x#7 0
x#6 0
x#5 0
x#4 795
x#3 0
x#2 0
x#1 634
